8054 4946 766
6236 5764 856
2872 7128 695
8895 4105 533
6215 6785 693
4728 6272 862
5221 6779 810
8887 4113 678
9106 2894 603
9126 2874 532
7687 5313 793
6493 6507 826
5228 5772 863
4853 7147 649
8003 4997 770
7945 5055 611
6739 5261 852
4920 7080 753
